500
    1    81    81
    2    42    42
    3    42    42
    4    42    42
    5    56    56
    6    68    68
    7    25    25
    8    68    68
    9    14    14
   10    77    77
   11    63    63
   12    57    57
   13    75    75
   14    17    17
   15    41    41
   16    19    19
   17    19    19
   18    94    94
   19    12    12
   20    34    34
   21    25    25
   22    87    87
   23    37    37
   24    27    27
   25    10    10
   26    99    99
   27    86    86
   28    30    30
   29     6     6
   30    59    59
   31    46    46
   32   100   100
   33     7     7
   34    30    30
   35    18    18
   36    38    38
   37    79    79
   38    86    86
   39     8     8
   40    69    69
   41    51    51
   42    53    53
   43    53    53
   44    59    59
   45    38    38
   46    40    40
   47   100   100
   48    96    96
   49    82    82
   50    57    57
   51    70    70
   52    70    70
   53    24    24
   54    84    84
   55    57    57
   56    47    47
   57    15    15
   58    86    86
   59    97    97
   60    28    28
   61    19    19
   62    61    61
   63    77    77
   64    56    56
   65    85    85
   66    24    24
   67    35    35
   68    75    75
   69     6     6
   70    39    39
   71    15    15
   72    53    53
   73    98    98
   74    85    85
   75    14    14
   76    83    83
   77     2     2
   78    58    58
   79    80    80
   80    47    47
   81    53    53
   82    68    68
   83    63    63
   84    29    29
   85    48    48
   86    49    49
   87    59    59
   88     3     3
   89    25    25
   90    78    78
   91    56    56
   92    11    11
   93    71    71
   94    36    36
   95    15    15
   96    84    84
   97    81    81
   98    12    12
   99     2     2
  100    37    37
  101    68    68
  102    39    39
  103    34    34
  104    14    14
  105    47    47
  106    83    83
  107    82    82
  108    53    53
  109    46    46
  110    32    32
  111    21    21
  112    62    62
  113    79    79
  114    94    94
  115    80    80
  116    16    16
  117     6     6
  118    80    80
  119    68    68
  120     7     7
  121    10    10
  122    76    76
  123    84    84
  124    50    50
  125    77    77
  126    33    33
  127    24    24
  128    61    61
  129    33    33
  130    82    82
  131    18    18
  132    53    53
  133    58    58
  134    25    25
  135   100   100
  136    81    81
  137    14    14
  138    40    40
  139    55    55
  140    65    65
  141    75    75
  142    25    25
  143    79    79
  144    67    67
  145     4     4
  146    17    17
  147     1     1
  148    85    85
  149    13    13
  150    46    46
  151    42    42
  152    50    50
  153    48    48
  154     6     6
  155    45    45
  156    69    69
  157    18    18
  158    92    92
  159    84    84
  160    11    11
  161    39    39
  162    91    91
  163     3     3
  164    50    50
  165    36    36
  166     1     1
  167    91    91
  168    18    18
  169    79    79
  170    89    89
  171    15    15
  172    44    44
  173    81    81
  174    34    34
  175     6     6
  176    55    55
  177    96    96
  178    44    44
  179    65    65
  180    54    54
  181     2     2
  182     2     2
  183    90    90
  184    97    97
  185    42    42
  186    57    57
  187    57    57
  188     8     8
  189    98    98
  190    36    36
  191    71    71
  192    58    58
  193    59    59
  194    69    69
  195    54    54
  196    68    68
  197    50    50
  198    72    72
  199    90    90
  200    92    92
  201    79    79
  202    52    52
  203    50    50
  204    69    69
  205    80    80
  206    58    58
  207    90    90
  208     1     1
  209    63    63
  210    91    91
  211    20    20
  212    55    55
  213    97    97
  214     2     2
  215    88    88
  216    64    64
  217     4     4
  218    50    50
  219    35    35
  220   100   100
  221    16    16
  222    97    97
  223     9     9
  224    50    50
  225    23    23
  226    37    37
  227    27    27
  228    23    23
  229     3     3
  230    54    54
  231    28    28
  232    25    25
  233    69    69
  234    11    11
  235    43    43
  236    33    33
  237    63    63
  238    98    98
  239     6     6
  240    15    15
  241    45    45
  242    85    85
  243    10    10
  244    98    98
  245    57    57
  246    82    82
  247    12    12
  248    79    79
  249    99    99
  250    95    95
  251    88    88
  252    52    52
  253    33    33
  254     8     8
  255    25    25
  256    82    82
  257    28    28
  258    67    67
  259    17    17
  260    16    16
  261    63    63
  262    66    66
  263    75    75
  264    59    59
  265    56    56
  266    20    20
  267    86    86
  268     2     2
  269    82    82
  270    33    33
  271    60    60
  272    39    39
  273    83    83
  274   100   100
  275     4     4
  276     9     9
  277    75    75
  278    87    87
  279    46    46
  280    89    89
  281    61    61
  282    86    86
  283     2     2
  284    88    88
  285    41    41
  286    45    45
  287    93    93
  288    75    75
  289    47    47
  290    56    56
  291    72    72
  292    82    82
  293    76    76
  294    25    25
  295    57    57
  296    59    59
  297    10    10
  298    52    52
  299     8     8
  300    22    22
  301    31    31
  302    88    88
  303    46    46
  304    54    54
  305    51    51
  306    43    43
  307    18    18
  308    99    99
  309    19    19
  310    84    84
  311     2     2
  312    64    64
  313    80    80
  314     9     9
  315    89    89
  316    53    53
  317    59    59
  318    31    31
  319    87    87
  320     5     5
  321     3     3
  322    86    86
  323    32    32
  324    25    25
  325     8     8
  326    26    26
  327    35    35
  328    73    73
  329    31    31
  330    28    28
  331    76    76
  332    25    25
  333    84    84
  334    71    71
  335    17    17
  336     8     8
  337     3     3
  338    82    82
  339    67    67
  340    13    13
  341    52    52
  342    78    78
  343    91    91
  344    62    62
  345    42    42
  346    34    34
  347    47    47
  348    46    46
  349    96    96
  350    31    31
  351    36    36
  352    72    72
  353   100   100
  354    99    99
  355    91    91
  356    26    26
  357    16    16
  358    98    98
  359    61    61
  360    88    88
  361    93    93
  362    47    47
  363    98    98
  364    21    21
  365    34    34
  366    41    41
  367     6     6
  368    41    41
  369     6     6
  370    13    13
  371    47    47
  372    53    53
  373    40    40
  374    69    69
  375    99    99
  376    96    96
  377    81    81
  378    63    63
  379     7     7
  380    43    43
  381    16    16
  382    56    56
  383    64    64
  384    19    19
  385    42    42
  386    57    57
  387    78    78
  388    56    56
  389    83    83
  390    32    32
  391    83    83
  392    33    33
  393    25    25
  394    44    44
  395    39    39
  396    36    36
  397    64    64
  398    34    34
  399    47    47
  400    44    44
  401    28    28
  402   100   100
  403    54    54
  404    49    49
  405    16    16
  406    96    96
  407    96    96
  408    94    94
  409    68    68
  410    18    18
  411    82    82
  412    92    92
  413    26    26
  414    79    79
  415    71    71
  416    35    35
  417    37    37
  418    78    78
  419     3     3
  420    27    27
  421    34    34
  422    65    65
  423    33    33
  424    37    37
  425    92    92
  426    93    93
  427    22    22
  428    53    53
  429    91    91
  430    67    67
  431    45    45
  432    66    66
  433    18    18
  434    99    99
  435    17    17
  436    85    85
  437    39    39
  438    51    51
  439    88    88
  440    35    35
  441    99    99
  442    69    69
  443    30    30
  444    82    82
  445    11    11
  446    59    59
  447    77    77
  448    56    56
  449    29    29
  450    20    20
  451    37    37
  452    83    83
  453    25    25
  454    80    80
  455    47    47
  456     5     5
  457     1     1
  458    64    64
  459    84    84
  460    84    84
  461    59    59
  462    36    36
  463     8     8
  464    15    15
  465    82    82
  466    42    42
  467    68    68
  468    35    35
  469    79    79
  470    95    95
  471     1     1
  472   100   100
  473    43    43
  474    90    90
  475    27    27
  476    52    52
  477    54    54
  478     1     1
  479    30    30
  480    46    46
  481     3     3
  482     5     5
  483    61    61
  484    73    73
  485    91    91
  486    26    26
  487    53    53
  488    88    88
  489    92    92
  490    71    71
  491    84    84
  492    94    94
  493    47    47
  494    64    64
  495    51    51
  496    11    11
  497    62    62
  498    77    77
  499    50    50
  500    45    45
4280
